groups = 64;
numShifts = 3;
demand = [| 35, 35, 30, 30, 25, 25, 15,
          | 15, 15, 20, 15, 15, 20, 15,
          | 10, 10, 10, 10, 10, 0, 0 |];
minShift = [2, 2, 2];
maxShift = [6, 6, 5];
minOff = 1;
maxOff = 4;
minOn = 3;
maxOn = 6;
forbidden = [{}, {1}, {1,2}];
forbidden3 = [| 3, 0, 3,
              | 2, 0, 1,
              | 3, 0, 2,
              | 3, 0, 1 |];
